SCIP Status        : solving was interrupted [time limit reached]
Total Time         :    3600.09
  solving          :    3600.01
  presolving       :       0.33 (included in solving)
  reading          :       0.08
  copying          :       0.19 (17 #copies) (minimal 0.01, maximal 0.02, average 0.01)
Original Problem   :
  Problem name     : benchmark/normal_50_20_22.design
  Variables        : 3271 (50 binary, 0 integer, 0 implicit integer, 3221 continuous)
  Constraints      : 4453 initial, 4453 maximal
  Objective        : minimize, 1 non-zeros (abs.min = 1, abs.max = 1)
Presolved Problem  :
  Problem name     : t_benchmark/normal_50_20_22.design
  Variables        : 4693 (50 binary, 0 integer, 0 implicit integer, 4643 continuous)
  Constraints      : 4453 initial, 4454 maximal
  Objective        : minimize, 1 non-zeros (abs.min = 1, abs.max = 1)
  Nonzeros         : 23682 constraint, 0 clique table
Presolvers         :   ExecTime  SetupTime  Calls  FixedVars   AggrVars   ChgTypes  ChgBounds   AddHoles    DelCons    AddCons   ChgSides   ChgCoefs
  boundshift       :       0.00       0.00      0          0          0          0          0          0          0          0          0          0
  convertinttobin  :       0.00       0.00      0          0          0          0          0          0          0          0          0          0
  domcol           :       0.00       0.00      1          0          0          0          0          0          0          0          0          0
  dualagg          :       0.00       0.00      0          0          0          0          0          0          0          0          0          0
  dualcomp         :       0.00       0.00      1          0          0          0          0          0          0          0          0          0
  dualinfer        :       0.00       0.00      0          0          0          0          0          0          0          0          0          0
  dualsparsify     :       0.00       0.00      1          0          0          0          0          0          0          0          0          0
  gateextraction   :       0.00       0.00      0          0          0          0          0          0          0          0          0          0
  implics          :       0.00       0.00      1          0          0          0          0          0          0          0          0          0
  inttobinary      :       0.00       0.00      0          0          0          0          0          0          0          0          0          0
  qpkktref         :       0.00       0.00      0          0          0          0          0          0          0          0          0          0
  redvub           :       0.00       0.00      0          0          0          0          0          0          0          0          0          0
  sparsify         :       0.00       0.00      1          0          0          0          0          0          0          0          0          0
  stuffing         :       0.00       0.00      0          0          0          0          0          0          0          0          0          0
  trivial          :       0.00       0.00      2        190          0          0          0          0          0          0          0          0
  tworowbnd        :       0.00       0.00      0          0          0          0          0          0          0          0          0          0
  dualfix          :       0.00       0.00      2        190          0          0          0          0          0          0          0          0
  genvbounds       :       0.00       0.00      0          0          0          0          0          0          0          0          0          0
  probing          :       0.05       0.01      1          0          0          0          0          0          0          0          0          0
  pseudoobj        :       0.00       0.00      0          0          0          0          0          0          0          0          0          0
  symmetry         :       0.03       0.00      1          0          0          0          0          0          0          0          0          0
  vbounds          :       0.00       0.00      0          0          0          0          0          0          0          0          0          0
  linear           :       0.02       0.00      3          0          0          0          0          0          0          0          0          0
  nonlinear        :       0.20       0.03      4          0          0          0        400          0          0          0          0          0
  benders          :       0.00       0.00      0          0          0          0          0          0          0          0          0          0
  components       :       0.00       0.00      1          0          0          0          0          0          0          0          0          0
  root node        :          -          -      -          0          -          -       4486          -          -          -          -          -
Constraints        :     Number  MaxNumber  #Separate #Propagate    #EnfoLP    #EnfoRelax  #EnfoPS    #Check   #ResProp    Cutoffs    DomReds       Cuts    Applied      Conss   Children
  benderslp        :          0          0          0          0       6000          0          0        646          0          0          0          0          0          0          0
  integral         :          0          0          0          0       6000          0          0        646          0          0       3444          0          0          0      11660
  linear           :       3052+      3053         19      70630          2          0          0        640          0        269     637043          0          0          0          0
  nonlinear        :       1401       1401      20584      70361         90          0          0        356          0       1178    1457368     695592     686098          0          0
  benders          :          0          0          0          0          2          0          0          4          0          0          0          0          0          0          0
  countsols        :          0          0          0          0          2          0          0          4          0          0          0          0          0          0          0
  components       :          0          0          0          0          0          0          0          0          0          0          0          0          0          0          0
Constraint Timings :  TotalTime  SetupTime   Separate  Propagate     EnfoLP     EnfoPS     EnfoRelax   Check    ResProp    SB-Prop
  benderslp        :       0.00       0.00       0.00       0.00       0.00       0.00       0.00       0.00       0.00       0.00
  integral         :      84.53       0.00       0.00       0.00      84.53       0.00       0.00       0.00       0.00       0.00
  linear           :       5.38       0.00       0.01       5.13       0.00       0.00       0.00       0.22       0.00       0.02
  nonlinear        :      75.56       0.03      52.13      22.32       0.16       0.00       0.00       0.41       0.00       0.51
  benders          :       0.00       0.00       0.00       0.00       0.00       0.00       0.00       0.00       0.00       0.00
  countsols        :       0.00       0.00       0.00       0.00       0.00       0.00       0.00       0.00       0.00       0.00
  components       :       0.03       0.00       0.00       0.03       0.00       0.00       0.00       0.00       0.00       0.00
Propagators        : #Propagate   #ResProp    Cutoffs    DomReds
  dualfix          :          4          0          0          0
  genvbounds       :          0          0          0          0
  nlobbt           :          0          0          0          0
  obbt             :          0          0          0          0
  probing          :          0          0          0          0
  pseudoobj        :      43089          0          0         14
  redcost          :      37545          0          0       4382
  rootredcost      :          4          0          0       3070
  symmetry         :          0          0          0          0
  vbounds          :      12346          0          0          0
Propagator Timings :  TotalTime  SetupTime   Presolve  Propagate    ResProp    SB-Prop
  dualfix          :       0.00       0.00       0.00       0.00       0.00       0.00
  genvbounds       :       0.05       0.00       0.00       0.05       0.00       0.00
  nlobbt           :       0.00       0.00       0.00       0.00       0.00       0.00
  obbt             :       0.01       0.00       0.00       0.01       0.00       0.00
  probing          :       0.06       0.01       0.05       0.00       0.00       0.00
  pseudoobj        :       0.06       0.00       0.00       0.05       0.00       0.01
  redcost          :       2.06       0.00       0.00       2.06       0.00       0.00
  rootredcost      :       0.06       0.00       0.00       0.06       0.00       0.00
  symmetry         :       0.07       0.00       0.03       0.04       0.00       0.00
  vbounds          :       0.03       0.00       0.00       0.03       0.00       0.00
Conflict Analysis  :       Time      Calls    Success    DomReds  Conflicts   Literals    Reconvs ReconvLits   Dualrays   Nonzeros   LP Iters   (pool size: [--,--])
  propagation      :       0.00          0          0          -          0        0.0          0        0.0          -          -          -
  infeasible LP    :       0.00          0          0          -          0        0.0          0        0.0          4      329.0          0
  bound exceed. LP :       5.69       1927          4          -          0        0.0          0        0.0          0        0.0       7042
  strong branching :       0.00          0          0          -          0        0.0          0        0.0          -          -          0
  pseudo solution  :       0.00          0          0          -          0        0.0          0        0.0          -          -          -
  applied globally :       0.00          -          -          0          0        0.0          -          -          4          -          -
  applied locally  :          -          -          -          0          0        0.0          -          -          0          -          -
Separators         :   ExecTime  SetupTime      Calls  RootCalls    Cutoffs    DomReds  FoundCuts ViaPoolAdd  DirectAdd    Applied ViaPoolApp  DirectApp      Conss
  cut pool         :       0.00          -          0          0          -          -          0          0          -          -          -          -          -    (maximal pool size:          0)
  aggregation      :       2.62       0.00        778         19          0          0          0          0          0          0          0          0          0
  > cmir           :          -          -          -          -          -          -          -          0          0          0          0          0          -
  > flowcover      :          -          -          -          -          -          -          -          0          0          0          0          0          -
  > knapsackcover  :          -          -          -          -          -          -          -          0          0          0          0          0          -
  cgmip            :       0.00       0.00          0          0          0          0          0          0          0          0          0          0          0
  clique           :       0.00       0.00          1          1          0          0          0          0          0          0          0          0          0
  closecuts        :       0.00       0.00          0          0          0          0          0          0          0          0          0          0          0
  convexproj       :       0.00       0.00          0          0          0          0          0          0          0          0          0          0          0
  disjunctive      :       0.00       0.00          0          0          0          0          0          0          0          0          0          0          0
  eccuts           :       0.00       0.00          0          0          0          0          0          0          0          0          0          0          0
  gauge            :       0.00       0.00          0          0          0          0          0          0          0          0          0          0          0
  gomory           :       1.53       0.00        762         10          0          0          0          0          0          0          0          0          0
  > gomorymi       :          -          -          -          -          -          -          -          0          0          0          0          0          -
  > strongcg       :          -          -          -          -          -          -          -          0          0          0          0          0          -
  impliedbounds    :       0.16       0.00        778         19          0          0          0          0          0          0          0          0          0
  interminor       :       0.00       0.00          0          0          0          0          0          0          0          0          0          0          0
  intobj           :       0.00       0.00          0          0          0          0          0          0          0          0          0          0          0
  mcf              :       0.01       0.00          3          3          0          0          0          0          0          0          0          0          0
  minor            :       0.00       0.00          0          0          0          0          0          0          0          0          0          0          0
  mixing           :       0.05       0.00        778         19          0          0          0          0          0          0          0          0          0
  oddcycle         :       0.00       0.00          0          0          0          0          0          0          0          0          0          0          0
  rapidlearning    :       0.01       0.00          0          0          0          0          0          0          0          0          0          0          0
  rlt              :       0.03       0.00         10         10          0          0          0          0          0          0          0          0          0
  zerohalf         :       0.91       0.00        771         19          0          0          0          0          0          0          0          0          0
Cutselectors       :   ExecTime  SetupTime      Calls  RootCalls   Selected     Forced   Filtered  RootSelec   RootForc   RootFilt 
  hybrid           :       0.84       0.00      20432         18     683193          0       9448       8884          0          4
Pricers            :   ExecTime  SetupTime      Calls       Vars
  problem variables:       0.00          -          0          0
Branching Rules    :   ExecTime  SetupTime   BranchLP  BranchExt   BranchPS    Cutoffs    DomReds       Cuts      Conss   Children
  allfullstrong    :       0.00       0.00          0          0          0          0          0          0          0          0
  cloud            :       0.00       0.00          0          0          0          0          0          0          0          0
  distribution     :       0.00       0.00          0          0          0          0          0          0          0          0
  fullstrong       :       0.00       0.00          0          0          0          0          0          0          0          0
  inference        :       0.00       0.00          0          0          0          0          0          0          0          0
  leastinf         :       0.00       0.00          0          0          0          0          0          0          0          0
  lookahead        :       0.00       0.00          0          0          0          0          0          0          0          0
  mostinf          :       0.00       0.00          0          0          0          0          0          0          0          0
  multaggr         :       0.00       0.00          0          0          0          0          0          0          0          0
  nodereopt        :       0.00       0.00          0          0          0          0          0          0          0          0
  pscost           :       0.00       0.00          0          0          0          0          0          0          0          0
  random           :       0.00       0.00          0          0          0          0          0          0          0          0
  relpscost        :      84.51       0.00       5910          0          0          0       3444          0          0      11660
  vanillafullstrong:       0.00       0.00          0          0          0          0          0          0          0          0
Primal Heuristics  :   ExecTime  SetupTime      Calls      Found       Best
  LP solutions     :       0.01          -          -          2          2
  relax solutions  :       0.00          -          -          0          0
  pseudo solutions :       0.00          -          -          0          0
  strong branching :       0.00          -          -          0          0
  actconsdiving    :       0.00       0.00          0          0          0
  adaptivediving   :       9.52       0.00         18          0          0
  alns             :       0.57       0.00          6          0          0
  bound            :       0.00       0.00          0          0          0
  clique           :       0.00       0.00          0          0          0
  coefdiving       :       0.00       0.00          0          0          0
  completesol      :       0.00       0.00          0          0          0
  conflictdiving   :      25.02       0.00         38          0          0
  crossover        :     258.58       0.00          4          1          1
  dins             :       0.00       0.00          0          0          0
  distributiondivin:      37.58       0.00         38          0          0
  dps              :       0.00       0.00          0          0          0
  dualval          :       0.00       0.00          0          0          0
  farkasdiving     :       0.00       0.00          0          0          0
  feaspump         :      49.57       0.00         15          0          0
  fixandinfer      :       0.00       0.00          0          0          0
  fracdiving       :      13.70       0.00         39          0          0
  gins             :       0.02       0.00          0          0          0
  guideddiving     :      11.37       0.00         38          0          0
  indicator        :       0.05       0.00          0          0          0
  indicatordiving  :       0.00       0.00          0          0          0
  intdiving        :       0.00       0.00          0          0          0
  intshifting      :       4.85       0.00         15          0          0
  linesearchdiving :      15.04       0.00         38          0          0
  localbranching   :       0.00       0.00          0          0          0
  locks            :       0.12       0.00          1          0          0
  lpface           :       0.01       0.00          0          0          0
  mpec             :       5.50       0.00          1          1          1
  multistart       :       0.00       0.00          0          0          0
  mutation         :       0.00       0.00          0          0          0
  nlpdiving        :       6.17       0.00          6          0          0
  objpscostdiving  :      45.65       0.00         12          0          0
  octane           :       0.00       0.00          0          0          0
  ofins            :       0.01       0.00          0          0          0
  oneopt           :       0.02       0.00          5          0          0
  padm             :       0.00       0.00          0          0          0
  proximity        :       0.00       0.00          0          0          0
  pscostdiving     :      18.66       0.00         39          0          0
  randrounding     :       0.79       0.00        411          0          0
  rens             :       0.00       0.00          0          0          0
  reoptsols        :       0.00       0.00          0          0          0
  repair           :       0.00       0.00          0          0          0
  rins             :      40.24       0.00          7          0          0
  rootsoldiving    :      39.86       0.00         20          0          0
  rounding         :       0.78       0.00       2275          0          0
  shiftandpropagate:       0.07       0.00          1          0          0
  shifting         :       1.03       0.00        727          0          0
  simplerounding   :       0.01       0.00          0          0          0
  subnlp           :       9.63       0.00         10          1          1
  trivial          :       0.01       0.00          2          0          0
  trivialnegation  :       0.00       0.00          0          0          0
  trustregion      :       0.00       0.00          0          0          0
  trysol           :       0.02       0.00          0          0          0
  twoopt           :       0.00       0.00          0          0          0
  undercover       :       0.91       0.00          1          0          0
  vbounds          :       0.00       0.00          0          0          0
  veclendiving     :      23.38       0.00         39          0          0
  zeroobj          :       0.00       0.00          0          0          0
  zirounding       :       0.05       0.00       1000          0          0
  other solutions  :          -          -          -          0          -
Diving (single)    :      Calls      Nodes   LP Iters Backtracks  Conflicts   MinDepth   MaxDepth   AvgDepth  RoundSols  NLeafSols  MinSolDpt  MaxSolDpt  AvgSolDpt
  actconsdiving    :          0          -          -          -          -          -          -          -          -          -          -          -          -
  coefdiving       :          0          -          -          -          -          -          -          -          -          -          -          -          -
  conflictdiving   :         38        940      98853        168          2         32         47       38.6          0          -          -          -          -
  distributiondivin:         38        845     137942        202          0         25         50       36.4          0          -          -          -          -
  farkasdiving     :          0          -          -          -          -          -          -          -          -          -          -          -          -
  fracdiving       :         39        974      65379         29          0         35         50       45.4          0          -          -          -          -
  guideddiving     :         38        872      56657         36          0         32         49       43.7          0          -          -          -          -
  indicatordiving  :          0          -          -          -          -          -          -          -          -          -          -          -          -
  linesearchdiving :         38        965      71980         56          0         38         49       44.3          0          -          -          -          -
  pscostdiving     :         39        972     102008         18          0         35         50       44.8          0          -          -          -          -
  veclendiving     :         39        973      99470        215          1         25         50       37.0          0          -          -          -          -
Diving (adaptive)  :      Calls      Nodes   LP Iters Backtracks  Conflicts   MinDepth   MaxDepth   AvgDepth  RoundSols  NLeafSols  MinSolDpt  MaxSolDpt  AvgSolDpt
  actconsdiving    :          3         89      12805         27          0         32         48       40.7          0          -          -          -          -
  coefdiving       :          6        105       7114         18          0         28         45       37.7          0          -          -          -          -
  conflictdiving   :          0          -          -          -          -          -          -          -          -          -          -          -          -
  distributiondivin:          0          -          -          -          -          -          -          -          -          -          -          -          -
  farkasdiving     :          0          -          -          -          -          -          -          -          -          -          -          -          -
  fracdiving       :          2         73       5276          0          0         45         49       47.0          0          -          -          -          -
  guideddiving     :          3        106       8281          3          0         42         50       46.7          0          -          -          -          -
  indicatordiving  :          0          -          -          -          -          -          -          -          -          -          -          -          -
  linesearchdiving :          1         44       2707          0          0         47         47       47.0          0          -          -          -          -
  pscostdiving     :          2         62       5202          0          0         50         50       50.0          0          -          -          -          -
  veclendiving     :          1         18       1310          0          0         27         27       27.0          0          -          -          -          -
Neighborhoods      :      Calls  SetupTime  SolveTime SolveNodes       Sols       Best       Exp3  EpsGreedy        UCB TgtFixRate  Opt  Inf Node Stal  Sol  Usr Othr Actv
  rens             :          0       0.00       0.00          0          0          0    0.00000   -1.00000    1.00000      0.900    0    0    0    0    0    0    0    1
  rins             :          1       0.05       0.11          0          0          0    0.00000   -1.00000    1.00000      0.900    0    0    0    0    0    0    1    1
  mutation         :          0       0.00       0.00          0          0          0    0.00000   -1.00000    1.00000      0.900    0    0    0    0    0    0    0    1
  localbranching   :          1       0.02       0.06          0          0          0    0.00000   -1.00000    1.00000      0.900    0    0    0    0    0    0    1    1
  crossover        :          1       0.03       0.06          0          0          0    0.00000   -1.00000    1.00000      0.900    0    0    0    0    0    0    1    1
  proximity        :          1       0.02       0.08          0          0          0    0.00000   -1.00000    1.00000      0.900    0    0    0    0    0    0    1    1
  zeroobjective    :          1       0.01       0.00          0          0          0    0.00000   -1.00000    1.00000      0.900    0    0    0    0    0    0    1    1
  dins             :          1       0.02       0.05          0          0          0    0.00000   -1.00000    1.00000      0.900    0    0    0    0    0    0    1    1
  trustregion      :          0       0.00       0.00          0          0          0    0.00000   -1.00000    1.00000      0.900    0    0    0    0    0    0    0    0
Expressions        :   #IntEval  IntEvalTi   #RevProp  RevPropTi    DomReds    Cutoffs  #Estimate  EstimTime  Branching  #Simplify SimplifyTi Simplified
  pow              :    3820257       0.83    1370640       0.30    2152116          0     117116       0.02          0       3240       0.00          0
  prod             :    3251005       0.78      20086       0.00        512          0          0       0.00          0       2002       0.00       1000
  sum              :    3499936       0.89    2343841       0.63     104068        138        401       0.00          0       3202       0.01        401
  var              :    8004094       1.90          0       0.00          0          0          0       0.00          0       8041       0.00          0
  varidx           :          0       0.00          0       0.00          0          0          0       0.00          0          0       0.00          0
Nonlinear Conshdlr :   WeakSepa  TightenLP DespTghtLP DespBranch DespCutoff    ForceLP  CanonTime
  enforce          :       2892          0          0          0          0          0
  presolve         :                                                                         0.16
Nlhdlrs            :    Detects  DetectAll DetectTime   #IntEval  IntEvalTi   #RevProp  RevPropTi    DomReds    Cutoffs   #Enforce   EnfoTime       Cuts  Branching
  soc              :       1000       1000       0.00          0       0.00          0       0.00          0          0   11182393      16.55     560100          0
  convex           :          1          1       0.00          0       0.00          0       0.00          0          0      18777       0.11      18776          0
  concave          :          0          0       0.01          0       0.00          0       0.00          0          0          0       0.00          0          0
  quotient         :          0          0       0.00          0       0.00          0       0.00          0          0          0       0.00          0          0
  quadratic        :          0          0       0.00          0       0.00          0       0.00          0          0          0       0.00          0          0
  default          :       6693      33465       0.01   10565572       6.45    3743180       7.48    2256696        138     117517       0.14     116716          0
  bilinear         :          0          0       0.01          0       0.00          0       0.00          0          0          0       0.00          0          0
  perspective      :          0          0       0.00          0       0.00          0       0.00          0          0          0       0.00          0          0
LP                 :       Time      Calls Iterations  Iter/call   Iter/sec  Time-0-It Calls-0-It    ItLimit
  primal LP        :     661.46       5760        128      21.33       0.19     660.15       5754
  dual LP          :    2101.84      34710    7722035     251.07    3673.94      22.64       3954
  lex dual LP      :       0.00          0          0       0.00          -
  barrier LP       :       0.00          0          0       0.00          -       0.00          0
  resolve instable :       0.00          0          0       0.00          -
  diving/probing LP:     269.14       2545    1095694     430.53    4071.09
  strong branching :      79.39        386     310483     804.36    3910.86          -          -        493
    (at root node) :          -         22      21928     996.73          -
  conflict analysis:       2.33        706       7042       9.97    3022.32
NLP relaxation     :
  solve time       :       6.14 (11 calls)
  convexity        :  nonconvex (252 linear rows, 401 convex ineq., 1000 nonconvex ineq., 0 nonlinear eq. or two-sided ineq.)
NLP Solvers        :  #Problems  ProblemTi    #Solves  SolveTime      #Iter  Time/Iter      #Okay #TimeLimit #IterLimit #LObjLimit #Interrupt  #NumError #EvalError  #OutOfMem #LicenseEr #OtherTerm   #GlobOpt    #LocOpt  #Feasible #LocInfeas #GlobInfea #Unbounded   #Unknown
  ipopt            :         13       2.34         24      19.60        965       0.02         16          0          8          0          0          0          0          0          0          0          0          6          2          4          0          0         12
B&B Tree           :
  number of runs   :          1
  nodes            :       9793 (5830 internal, 3963 leaves)
  feasible leaves  :          2
  infeas. leaves   :          0
  objective leaves :       3960
  nodes (total)    :       9793 (5830 internal, 3963 leaves)
  nodes left       :       1213
  max depth        :         49
  max depth (total):         49
  backtracks       :       1728 (17.6%)
  early backtracks :          0 (0.0%)
  nodes exc. ref.  :          0 (0.0%)
  delayed cutoffs  :          0
  repropagations   :          6 (0 domain reductions, 0 cutoffs)
  avg switch length:       5.01
  switching time   :     668.66
Estim. Tree Size   :      20896
Estimation Tree    : 11661 nodes (10448 visited, 5830 internal, 4618 leaves, 1213 open), weight: 0.0000 completed 0.0751
Estimations        :      estim      value      trend resolution     smooth
  wbe              :  627012806          -          -          -          -
  tree-profile     :         -1          -          -          -          -
  gap              :     110577    0.88098    0.00002          8     105757
  tree-weight      :      20896    0.00001    0.00000          8      20872
  leaf-frequency   :      20896    0.44195   -0.00014          8      20872
  ssg              :     170171    0.88140   -0.00009          8     164312
  open-nodes       :      20896 1213.00000    8.77552          8      20872
Root Node          :
  First LP value   : -1.10251578752747e+00
  First LP Iters   :       8414 (7446.02 Iter/sec)
  First LP Time    :       1.13
  Final Dual Bound : -3.90024057379260e-01
  Final Root Iters :      29839
  Root LP Estimate : +4.71544218245463e-01
Solution           :
  Solutions found  :          5 (5 improvements)
  First Solution   : -2.91327935901092e-01   (in run 1, after 1 nodes, 5.77 seconds, depth 0, found by <feaspump>)
  Gap First Sol.   :     278.44 %
  Gap Last Sol.    :      14.44 %
  Primal Bound     : -3.32565955063319e-01   (in run 1, after 3992 nodes, 1495.05 seconds, depth 38, found by <crossover>)
  Dual Bound       : -3.77495971142642e-01
  Gap              :      13.51 %
Integrals          :      Total       Avg%
  primal-dual      :   52112.26      14.48
  primal-ref       :          -          - (not evaluated)
  dual-ref         :          -          - (not evaluated)
